100
32
26
6
30
21
14
3
12
27
1
9
1
11
21
2
3
13
3
15
2
2
3
1
2
3
1
17
4
1
4
4
1
1
22
1
2
1
3
2
21
1
17
3
11
2
1
1
4
20
3
1
17
1
1
1
2
2
3
1
1
1
4
1
20
17
1
1
2
1
1
2
1
2
1
2
3
1
1
17
2
2
1
2
4
2
3
1
2
1
6
1
1
1
18
2
16
6
9
2
2
1